Version identifier: 12.10.0.0 | 2019-11-26 | 843d4de
CPXPARAM_WorkMem                                 28672
Tried aggregator 2 times.
MIP Presolve modified 55 coefficients.
Aggregator did 45 substitutions.
Reduced MIP has 245 rows, 300 columns, and 1135 nonzeros.
Reduced MIP has 300 binaries, 0 generals, 0 SOSs, and 0 indicators.
Presolve time = 0,00 sec. (1,51 ticks)
Found incumbent of value 1280,000000 after 0,00 sec. (2,33 ticks)
Probing time = 0,00 sec. (0,43 ticks)
Tried aggregator 1 time.
Detecting symmetries...
MIP Presolve eliminated 60 rows and 0 columns.
MIP Presolve added 120 rows and 0 columns.
Reduced MIP has 305 rows, 300 columns, and 1195 nonzeros.
Reduced MIP has 300 binaries, 0 generals, 0 SOSs, and 0 indicators.
Presolve time = 0,00 sec. (1,52 ticks)
Probing time = 0,00 sec. (0,42 ticks)
Clique table members: 775.
MIP emphasis: balance optimality and feasibility.
MIP search method: dynamic search.
Parallel mode: deterministic, using up to 16 threads.
Root relaxation solution time = 0,00 sec. (2,36 ticks)

        Nodes                                         Cuts/
   Node  Left     Objective  IInf  Best Integer    Best Bound    ItCnt     Gap

*     0+    0                         1280,0000        0,0000           100,00%
*     0+    0                          669,0000        0,0000           100,00%
*     0+    0                          613,0000        0,0000           100,00%
      0     0      275,2500   216      613,0000      275,2500      197   55,10%
      0     0      275,5879   216      613,0000      Cuts: 50      263   55,04%
      0     0      280,4398   216      613,0000     Cuts: 176      311   54,25%
      0     0      284,1097   216      613,0000     Cuts: 168      390   53,65%
      0     0      285,6971   216      613,0000     Cuts: 164      460   53,39%
      0     0      286,7896   216      613,0000     Cuts: 109      531   53,22%
      0     0      330,6570   216      613,0000     Cuts: 137      803   46,06%
      0     0      333,8220   216      613,0000      Cuts: 91      897   45,54%
      0     0      335,8171   216      613,0000     Cuts: 104      996   45,22%
*     0+    0                          563,0000      335,8171            40,35%
      0     0      337,0407   216      563,0000      Cuts: 44     1089   40,13%
      0     0      338,9126   216      563,0000      Cuts: 73     1191   39,80%
      0     0      339,6283   216      563,0000      Cuts: 70     1288   39,68%
      0     0      340,1998   216      563,0000      Cuts: 33     1359   39,57%
      0     0      340,9957   216      563,0000      Cuts: 77     1449   39,43%
      0     0      341,3883   216      563,0000      Cuts: 64     1531   39,36%
      0     0      341,7499   216      563,0000      Cuts: 85     1617   39,30%
      0     0      342,2951   216      563,0000      Cuts: 38     1723   39,20%
*     0+    0                          562,0000      342,2951            39,09%
      0     0      342,7488   216      562,0000      Cuts: 63     1831   39,01%
      0     0      347,8395   216      562,0000      Cuts: 52     2059   38,11%
      0     0      349,9635   216      562,0000     Cuts: 158     2244   37,73%
      0     0      350,6079   216      562,0000      Cuts: 76     2339   37,61%
      0     0      351,1521   216      562,0000      Cuts: 79     2425   37,52%
      0     0      351,6829   216      562,0000      Cuts: 24     2529   37,42%
      0     0      352,5348   216      562,0000      Cuts: 61     2654   36,20%
      0     0      358,5431   216      562,0000     Cuts: 124     2902   36,20%
      0     0      361,2152   216      562,0000     Cuts: 108     3086   35,73%
      0     0      361,9209   216      562,0000      Cuts: 38     3214   35,60%
      0     0      362,3306   216      562,0000      Cuts: 67     3301   35,53%
      0     0      363,0288   216      562,0000      Cuts: 36     3390   35,40%
      0     0      363,7727   216      562,0000      Cuts: 71     3495   35,27%
      0     0      364,5290   216      562,0000      Cuts: 51     3615   35,14%
      0     0      364,8902   216      562,0000      Cuts: 75     3731   35,07%
      0     0      365,1951   216      562,0000      Cuts: 46     3844   35,02%
      0     0      365,3493   216      562,0000      Cuts: 41     3895   34,99%
      0     0      365,5435   216      562,0000      Cuts: 53     3998   34,96%
*     0+    0                          557,0000      365,5435            34,37%
      0     0      365,8970   216      557,0000      Cuts: 63     4107   34,31%
      0     0      366,0299   216      557,0000      Cuts: 35     4178   34,29%
      0     0      366,2007   216      557,0000      Cuts: 29     4282   34,25%
      0     0      366,3532   216      557,0000      Cuts: 22     4385   34,23%
      0     0      366,4887   216      557,0000      Cuts: 86     4496   34,20%
      0     0      366,7207   216      557,0000      Cuts: 36     4597   34,16%
      0     0      366,8329   216      557,0000      Cuts: 60     4677   34,14%
      0     2      366,8329   284      557,0000      366,8329     4677   34,14%
Elapsed time = 1,18 sec. (803,22 ticks, tree = 0,02 MB, solutions = 6)
   1977  1056        cutoff            557,0000      389,8408    68159   30,01%
   4157  2095      539,1164   139      557,0000      495,5875   160192   11,03%
   6459  2444      552,7153   114      557,0000      517,1429   260647    7,16%

Performing restart 1

Repeating presolve.
Tried aggregator 2 times.
MIP Presolve eliminated 29 rows and 16 columns.
MIP Presolve added 24 rows and 0 columns.
MIP Presolve modified 16 coefficients.
Aggregator did 4 substitutions.
Reduced MIP has 296 rows, 280 columns, and 1089 nonzeros.
Reduced MIP has 280 binaries, 0 generals, 0 SOSs, and 0 indicators.
Presolve time = 0,00 sec. (1,49 ticks)
Tried aggregator 1 time.
Reduced MIP has 296 rows, 280 columns, and 1089 nonzeros.
Reduced MIP has 280 binaries, 0 generals, 0 SOSs, and 0 indicators.
Presolve time = 0,00 sec. (0,92 ticks)
Represolve time = 0,03 sec. (18,81 ticks)
   6462     0      367,8874   280      557,0000      Cuts: 40   272688    6,40%
   6462     0      368,3816   280      557,0000      Cuts: 35   272859    6,40%
   6462     0      369,4402   280      557,0000      Cuts: 47   273026    6,40%
   6462     0      370,3555   280      557,0000      Cuts: 85   273189    6,40%
   6462     2      370,3555   280      557,0000      521,3287   273189    6,40%
   6530    31      417,1359   253      557,0000      521,3287   277814    6,40%
   8298  1224      496,8030   185      557,0000      521,3287   335557    6,40%
   9620  2266      532,9937   129      557,0000      521,3287   390964    6,40%
  11253  3226      511,9672   147      557,0000      521,3287   453421    6,40%
  12880  4203      526,0325   128      557,0000      521,3287   520130    6,40%

Performing restart 2

Repeating presolve.
Tried aggregator 1 time.
Reduced MIP has 296 rows, 280 columns, and 1089 nonzeros.
Reduced MIP has 280 binaries, 0 generals, 0 SOSs, and 0 indicators.
Presolve time = 0,00 sec. (0,65 ticks)
Tried aggregator 1 time.
Reduced MIP has 296 rows, 280 columns, and 1089 nonzeros.
Reduced MIP has 280 binaries, 0 generals, 0 SOSs, and 0 indicators.
Presolve time = 0,00 sec. (0,92 ticks)
Represolve time = 0,03 sec. (21,36 ticks)
  14702     0      372,3832   280      557,0000      Cuts: 51   610854    6,40%
  14702     0      373,5552   280      557,0000      Cuts: 54   610991    6,40%
  14702     0      375,3887   280      557,0000      Cuts: 59   611171    6,40%
  14702     0      376,2049   280      557,0000      Cuts: 54   611309    6,40%
  14702     0      376,7757   280      557,0000      Cuts: 40   611431    6,40%
  14702     0      377,5823   280      557,0000      Cuts: 64   611582    6,40%
  14702     2      377,5823   279      557,0000      521,3287   611582    6,40%
Elapsed time = 5,26 sec. (4461,01 ticks, tree = 0,02 MB, solutions = 6)
  22103   757        cutoff            557,0000      542,7625   864867    2,56%

Clique cuts applied:  24
Cover cuts applied:  267
Flow cuts applied:  2
Mixed integer rounding cuts applied:  186
Zero-half cuts applied:  49
Lift and project cuts applied:  74
Gomory fractional cuts applied:  22

Root node processing (before b&c):
  Real time             =    1,17 sec. (801,73 ticks)
Parallel b&c, 16 threads:
  Real time             =    5,43 sec. (4653,52 ticks)
  Sync time (average)   =    1,17 sec.
  Wait time (average)   =    0,01 sec.
                          ------------
Total (root+branch&cut) =    6,60 sec. (5455,25 ticks)
